0.06/0.19	c :verbosity 0
0.06/0.19	c :decimal-scale 5
98.83/78.50	o 302.0 158.0 164.0 251.0 200.0
134.54/109.74	o 295.0 210.0 261.0 265.0 206.0
204.03/169.45	o 273.0 219.0 292.0 277.0 207.0
216.92/180.28	o 320.0 208.0 271.0 279.0 176.0
406.07/339.13	o 342.0 265.0 306.0 245.0 218.0
453.41/379.02	o 336.0 273.0 271.0 241.0 244.0
527.00/441.31	o 320.0 297.0 320.0 217.0 248.0
627.12/524.45	o 353.0 222.0 304.0 250.0 154.0
690.28/573.48	o 355.0 275.0 292.0 228.0 246.0
708.39/587.48	o 270.0 328.0 299.0 272.0 254.0
715.88/593.20	o 285.0 203.0 324.0 308.0 249.0
792.90/652.43	o 285.0 234.0 220.0 255.0 257.0
802.42/659.71	o 253.0 230.0 255.0 311.0 214.0
808.52/664.47	o 358.0 244.0 303.0 211.0 239.0
813.40/668.14	o 235.0 207.0 234.0 311.0 247.0
862.74/705.83	o 342.0 223.0 329.0 248.0 258.0
975.87/792.62	o 283.0 256.0 261.0 309.0 261.0
1086.54/877.20	o 248.0 278.0 289.0 298.0 263.0
1098.45/886.36	o 291.0 201.0 166.0 246.0 264.0
1117.24/900.72	o 215.0 222.0 291.0 318.0 177.0
1260.55/1010.49	o 365.0 221.0 246.0 228.0 267.0
1337.31/1069.37	o 369.0 239.0 336.0 211.0 258.0
1349.50/1078.64	o 305.0 174.0 186.0 182.0 268.0
1453.98/1158.87	o 284.0 253.0 263.0 260.0 270.0
1510.40/1201.96	o 168.0 211.0 278.0 325.0 250.0
1533.84/1219.70	o 262.0 262.0 294.0 272.0 271.0
1600.20/1270.70	o 303.0 217.0 162.0 251.0 272.0
1761.81/1396.95	o 268.0 239.0 190.0 240.0 274.0
1773.76/1406.29	o 298.0 226.0 283.0 196.0 274.0
1819.83/1442.17	o 375.0 287.0 266.0 230.0 244.0
1895.39/1501.38	o 276.0 235.0 314.0 208.0 275.0
1918.34/1519.24	o 299.0 182.0 237.0 253.0 275.0
1948.40/1542.60	o 262.0 190.0 261.0 326.0 276.0
2067.13/1635.40	o 264.0 204.0 265.0 242.0 277.0
2207.44/1744.86	o 380.0 235.0 272.0 199.0 238.0
2502.67/1975.73	o 383.0 290.0 265.0 228.0 258.0
2625.81/2072.26	o 233.0 155.0 155.0 263.0 283.0
2637.18/2081.17	o 297.0 168.0 233.0 337.0 274.0
2718.58/2144.98	o 385.0 327.0 221.0 248.0 253.0
3175.73/2503.48	o 389.0 211.0 280.0 267.0 93.0
3189.35/2514.10	o 292.0 172.0 155.0 244.0 288.0
3273.71/2579.81	o 390.0 270.0 278.0 267.0 165.0
3297.93/2598.89	o 368.0 269.0 348.0 343.0 138.0
3316.38/2613.20	o 226.0 207.0 252.0 277.0 289.0
3422.49/2696.44	o 227.0 163.0 206.0 334.0 290.0
3441.32/2711.02	o 204.0 216.0 283.0 289.0 290.0
3577.00/2817.26	o 375.0 296.0 364.0 314.0 153.0
3693.77/2905.05	o 339.0 285.0 363.0 345.0 173.0
3727.96/2930.83	o 393.0 300.0 271.0 200.0 263.0
3777.00/2967.75	o 192.0 185.0 234.0 323.0 292.0
4043.22/3168.01	o 185.0 199.0 226.0 297.0 294.0
4063.65/3183.44	o 262.0 142.0 117.0 348.0 291.0
4098.24/3209.57	o 388.0 252.0 266.0 348.0 168.0
4148.19/3247.16	o 347.0 248.0 367.0 223.0 259.0
4216.43/3298.56	o 285.0 224.0 252.0 258.0 294.0
4372.76/3416.20	o 286.0 319.0 297.0 211.0 296.0
4409.88/3444.16	o 314.0 216.0 322.0 350.0 183.0
4617.04/3600.03	s SATISFIABLE
4617.04/3600.03	v -x1 -x2 -x3 -x4 -x5 -x6 -x7 -x8 -x9 -x10 -x11 -x12 -x13 -x14 -x15 -x16 -x17 -x18 -x19 -x20 -x21 x22 -x23 -x24 -x25 -x26 -x27 -x28 -x29 -x30 -x31 -x32 -x33 -x34 -x35 -x36 -x37 -x38 -x39 -x40 x41 -x42 -x43 -x44 -x45 -x46 -x47 -x48 -x49 -x50 x51 -x52 -x53 x54 -x55 -x56 -x57 -x58 -x59 -x60 -x61 -x62 -x63 -x64 -x65 -x66 -x67 -x68 -x69 -x70 -x71 -x72 -x73 -x74 -x75 -x76 -x77 -x78 -x79 -x80 -x81 x82 -x83 -x84 -x85 -x86 -x87 -x88 -x89 -x90 -x91 -x92 -x93 -x94 -x95 -x96 -x97 -x98 -x99 -x100
4617.04/3600.03	o 302.0 158.0 164.0 251.0 200.0
4617.04/3600.03	v -x1 -x2 -x3 -x4 -x5 -x6 -x7 -x8 -x9 -x10 -x11 -x12 x13 x14 -x15 -x16 -x17 -x18 -x19 -x20 -x21 x22 -x23 -x24 -x25 -x26 -x27 -x28 -x29 -x30 -x31 -x32 -x33 -x34 -x35 -x36 -x37 -x38 -x39 -x40 x41 -x42 -x43 -x44 -x45 -x46 -x47 -x48 -x49 -x50 -x51 -x52 -x53 x54 -x55 -x56 -x57 -x58 -x59 -x60 -x61 -x62 -x63 -x64 -x65 -x66 -x67 -x68 -x69 -x70 -x71 -x72 -x73 -x74 -x75 -x76 -x77 -x78 -x79 -x80 -x81 x82 -x83 -x84 -x85 -x86 -x87 -x88 -x89 -x90 -x91 -x92 -x93 -x94 -x95 -x96 -x97 -x98 -x99 -x100
4617.04/3600.03	o 295.0 210.0 261.0 265.0 206.0
4617.04/3600.03	v -x1 -x2 -x3 -x4 -x5 -x6 -x7 -x8 -x9 -x10 -x11 -x12 x13 -x14 -x15 -x16 -x17 -x18 x19 -x20 -x21 x22 -x23 -x24 -x25 -x26 -x27 -x28 -x29 -x30 -x31 -x32 -x33 -x34 -x35 -x36 -x37 -x38 -x39 -x40 x41 -x42 -x43 -x44 -x45 -x46 -x47 -x48 -x49 -x50 -x51 -x52 -x53 x54 -x55 -x56 -x57 -x58 -x59 -x60 -x61 -x62 -x63 -x64 -x65 -x66 -x67 -x68 -x69 -x70 -x71 -x72 -x73 -x74 -x75 -x76 -x77 -x78 -x79 -x80 -x81 x82 -x83 -x84 -x85 -x86 -x87 -x88 -x89 -x90 -x91 -x92 -x93 -x94 -x95 -x96 -x97 -x98 -x99 -x100
4617.04/3600.03	o 273.0 219.0 292.0 277.0 207.0
4617.04/3600.03	v -x1 -x2 -x3 -x4 -x5 -x6 -x7 -x8 -x9 x10 -x11 -x12 -x13 -x14 -x15 -x16 -x17 -x18 -x19 -x20 -x21 x22 -x23 -x24 -x25 -x26 -x27 -x28 -x29 -x30 -x31 -x32 -x33 -x34 -x35 -x36 -x37 -x38 -x39 -x40 -x41 x42 -x43 -x44 -x45 -x46 -x47 -x48 -x49 -x50 -x51 -x52 -x53 -x54 -x55 -x56 -x57 -x58 -x59 -x60 -x61 -x62 -x63 -x64 -x65 -x66 -x67 -x68 -x69 -x70 -x71 -x72 -x73 -x74 -x75 -x76 -x77 x78 -x79 -x80 -x81 x82 -x83 -x84 -x85 -x86 -x87 -x88 -x89 -x90 -x91 -x92 -x93 -x94 -x95 x96 -x97 -x98 -x99 -x100
4617.04/3600.03	o 320.0 208.0 271.0 279.0 176.0
4617.04/3600.03	v -x1 -x2 -x3 -x4 -x5 -x6 -x7 -x8 -x9 x10 -x11 -x12 -x13 -x14 -x15 -x16 -x17 -x18 -x19 -x20 -x21 x22 -x23 -x24 -x25 -x26 -x27 -x28 -x29 -x30 -x31 -x32 -x33 -x34 -x35 x36 -x37 -x38 -x39 -x40 -x41 -x42 -x43 -x44 -x45 -x46 -x47 -x48 -x49 -x50 -x51 -x52 -x53 -x54 -x55 -x56 -x57 -x58 -x59 -x60 -x61 -x62 -x63 -x64 -x65 -x66 -x67 -x68 -x69 -x70 -x71 -x72 -x73 -x74 -x75 -x76 -x77 x78 -x79 -x80 -x81 -x82 -x83 -x84 -x85 -x86 -x87 -x88 x89 -x90 -x91 -x92 -x93 -x94 -x95 x96 -x97 -x98 -x99 -x100
4617.04/3600.03	o 342.0 265.0 306.0 245.0 218.0
4617.04/3600.03	v -x1 -x2 -x3 -x4 -x5 -x6 -x7 -x8 -x9 -x10 -x11 -x12 -x13 x14 -x15 -x16 -x17 -x18 -x19 -x20 -x21 x22 -x23 -x24 -x25 -x26 -x27 -x28 -x29 -x30 -x31 -x32 -x33 -x34 -x35 -x36 -x37 -x38 -x39 -x40 x41 -x42 -x43 -x44 -x45 -x46 -x47 -x48 -x49 -x50 -x51 -x52 -x53 x54 -x55 -x56 -x57 -x58 -x59 -x60 -x61 -x62 -x63 -x64 -x65 -x66 -x67 -x68 -x69 -x70 -x71 -x72 -x73 -x74 -x75 -x76 -x77 -x78 -x79 -x80 -x81 x82 -x83 -x84 -x85 x86 -x87 -x88 -x89 -x90 -x91 -x92 -x93 -x94 -x95 -x96 -x97 -x98 -x99 -x100
4617.04/3600.03	o 336.0 273.0 271.0 241.0 244.0
4617.04/3600.03	v -x1 -x2 -x3 -x4 -x5 -x6 -x7 -x8 -x9 -x10 -x11 -x12 x13 -x14 -x15 -x16 -x17 -x18 -x19 -x20 -x21 x22 -x23 -x24 -x25 -x26 -x27 -x28 -x29 -x30 -x31 -x32 -x33 -x34 -x35 -x36 -x37 -x38 x39 -x40 -x41 -x42 -x43 -x44 -x45 -x46 -x47 -x48 -x49 -x50 -x51 -x52 -x53 x54 -x55 -x56 -x57 -x58 -x59 -x60 -x61 -x62 -x63 -x64 -x65 -x66 -x67 -x68 x69 -x70 -x71 -x72 x73 -x74 -x75 -x76 -x77 -x78 -x79 -x80 -x81 x82 -x83 -x84 -x85 -x86 -x87 -x88 -x89 -x90 -x91 -x92 -x93 -x94 -x95 -x96 -x97 -x98 -x99 -x100
4617.04/3600.03	o 320.0 297.0 320.0 217.0 248.0
4617.04/3600.03	v -x1 -x2 -x3 -x4 -x5 -x6 -x7 -x8 -x9 x10 -x11 -x12 -x13 -x14 -x15 -x16 -x17 -x18 -x19 -x20 -x21 x22 -x23 -x24 -x25 -x26 -x27 -x28 -x29 -x30 -x31 -x32 -x33 -x34 -x35 -x36 -x37 -x38 -x39 -x40 x41 -x42 -x43 -x44 -x45 -x46 -x47 -x48 -x49 -x50 -x51 -x52 -x53 -x54 -x55 -x56 -x57 -x58 -x59 -x60 -x61 -x62 -x63 -x64 -x65 -x66 -x67 -x68 -x69 -x70 -x71 -x72 -x73 -x74 -x75 -x76 -x77 -x78 -x79 -x80 -x81 -x82 -x83 -x84 -x85 -x86 -x87 -x88 x89 -x90 -x91 -x92 -x93 -x94 -x95 x96 -x97 -x98 -x99 -x100
4617.04/3600.03	o 353.0 222.0 304.0 250.0 154.0
4617.04/3600.03	v -x1 -x2 -x3 -x4 -x5 -x6 -x7 -x8 -x9 -x10 -x11 -x12 -x13 -x14 -x15 -x16 -x17 -x18 -x19 -x20 -x21 x22 -x23 -x24 -x25 -x26 -x27 -x28 -x29 -x30 -x31 -x32 -x33 -x34 -x35 -x36 -x37 -x38 x39 -x40 -x41 -x42 -x43 -x44 -x45 -x46 -x47 -x48 -x49 -x50 x51 -x52 -x53 x54 -x55 -x56 -x57 -x58 -x59 -x60 -x61 -x62 -x63 -x64 -x65 -x66 -x67 -x68 x69 -x70 -x71 -x72 x73 -x74 -x75 -x76 -x77 -x78 -x79 -x80 -x81 x82 -x83 -x84 -x85 -x86 -x87 -x88 -x89 -x90 -x91 -x92 -x93 -x94 -x95 -x96 -x97 -x98 -x99 -x100
4617.04/3600.03	o 355.0 275.0 292.0 228.0 246.0
4617.04/3600.03	v -x1 -x2 -x3 -x4 x5 -x6 -x7 -x8 -x9 x10 -x11 -x12 -x13 -x14 -x15 -x16 -x17 -x18 -x19 -x20 -x21 -x22 -x23 -x24 -x25 -x26 -x27 -x28 -x29 -x30 -x31 -x32 -x33 -x34 -x35 -x36 -x37 -x38 -x39 -x40 -x41 x42 -x43 -x44 -x45 -x46 -x47 -x48 x49 -x50 -x51 -x52 -x53 -x54 -x55 -x56 -x57 -x58 -x59 -x60 -x61 -x62 -x63 -x64 -x65 -x66 -x67 -x68 -x69 -x70 -x71 -x72 -x73 -x74 -x75 -x76 -x77 x78 -x79 -x80 -x81 x82 -x83 -x84 -x85 -x86 -x87 -x88 -x89 -x90 -x91 -x92 -x93 -x94 -x95 x96 -x97 -x98 -x99 -x100
4617.04/3600.03	o 270.0 328.0 299.0 272.0 254.0
4617.04/3600.03	v -x1 -x2 -x3 -x4 -x5 -x6 -x7 -x8 -x9 x10 -x11 -x12 -x13 -x14 -x15 -x16 x17 -x18 -x19 -x20 -x21 x22 -x23 -x24 -x25 -x26 -x27 -x28 -x29 -x30 -x31 -x32 -x33 -x34 -x35 -x36 -x37 -x38 -x39 -x40 -x41 x42 -x43 -x44 -x45 -x46 -x47 -x48 -x49 -x50 -x51 -x52 -x53 -x54 -x55 -x56 -x57 -x58 -x59 -x60 -x61 -x62 -x63 -x64 -x65 -x66 -x67 -x68 -x69 -x70 -x71 -x72 -x73 -x74 -x75 -x76 -x77 x78 -x79 -x80 -x81 -x82 -x83 -x84 -x85 -x86 -x87 -x88 -x89 -x90 -x91 -x92 -x93 x94 -x95 x96 -x97 -x98 -x99 -x100
4617.04/3600.03	o 285.0 203.0 324.0 308.0 249.0
4617.04/3600.03	v -x1 -x2 -x3 -x4 -x5 -x6 -x7 -x8 -x9 -x10 -x11 -x12 x13 -x14 -x15 -x16 -x17 -x18 -x19 -x20 -x21 x22 -x23 -x24 -x25 -x26 -x27 -x28 -x29 -x30 -x31 -x32 -x33 -x34 -x35 -x36 -x37 -x38 -x39 -x40 x41 -x42 -x43 -x44 -x45 -x46 -x47 -x48 -x49 -x50 -x51 -x52 -x53 x54 -x55 -x56 -x57 -x58 -x59 -x60 -x61 -x62 -x63 -x64 x65 -x66 -x67 -x68 -x69 -x70 -x71 -x72 -x73 -x74 -x75 -x76 -x77 -x78 -x79 -x80 -x81 x82 -x83 -x84 -x85 -x86 -x87 -x88 -x89 -x90 -x91 -x92 -x93 -x94 -x95 -x96 -x97 -x98 -x99 -x100
4617.04/3600.03	o 285.0 234.0 220.0 255.0 257.0
4617.04/3600.03	v -x1 -x2 -x3 -x4 -x5 -x6 -x7 -x8 -x9 x10 -x11 -x12 -x13 -x14 -x15 -x16 -x17 -x18 -x19 -x20 -x21 -x22 -x23 -x24 -x25 -x26 -x27 -x28 -x29 -x30 -x31 -x32 -x33 -x34 -x35 -x36 -x37 -x38 -x39 -x40 -x41 x42 -x43 -x44 -x45 -x46 -x47 -x48 -x49 -x50 -x51 -x52 -x53 -x54 -x55 -x56 -x57 -x58 -x59 -x60 -x61 -x62 -x63 -x64 x65 -x66 -x67 -x68 -x69 -x70 -x71 -x72 -x73 -x74 -x75 -x76 -x77 x78 -x79 -x80 -x81 -x82 -x83 -x84 -x85 -x86 -x87 -x88 -x89 -x90 -x91 -x92 x93 -x94 -x95 x96 -x97 -x98 -x99 -x100
4617.04/3600.03	o 253.0 230.0 255.0 311.0 214.0
4617.04/3600.03	v -x1 -x2 -x3 -x4 -x5 -x6 -x7 -x8 x9 -x10 -x11 -x12 -x13 -x14 -x15 -x16 -x17 -x18 x19 -x20 -x21 x22 -x23 -x24 -x25 -x26 -x27 -x28 -x29 -x30 -x31 -x32 -x33 -x34 -x35 -x36 -x37 -x38 -x39 -x40 x41 -x42 -x43 -x44 -x45 -x46 -x47 -x48 -x49 -x50 -x51 -x52 -x53 x54 -x55 -x56 -x57 -x58 -x59 -x60 -x61 -x62 -x63 -x64 -x65 -x66 -x67 -x68 -x69 -x70 -x71 -x72 -x73 -x74 -x75 -x76 -x77 -x78 -x79 -x80 -x81 x82 -x83 -x84 -x85 -x86 -x87 -x88 -x89 -x90 -x91 -x92 -x93 -x94 -x95 -x96 -x97 -x98 -x99 -x100
4617.04/3600.03	o 358.0 244.0 303.0 211.0 239.0
4617.04/3600.03	v -x1 -x2 -x3 -x4 x5 -x6 -x7 -x8 -x9 -x10 -x11 x12 -x13 -x14 -x15 -x16 -x17 -x18 -x19 -x20 -x21 -x22 -x23 -x24 -x25 -x26 -x27 -x28 -x29 -x30 -x31 -x32 -x33 -x34 -x35 -x36 -x37 -x38 -x39 -x40 -x41 x42 -x43 -x44 -x45 -x46 -x47 -x48 -x49 -x50 -x51 -x52 -x53 -x54 -x55 -x56 -x57 -x58 -x59 -x60 -x61 -x62 -x63 -x64 -x65 -x66 -x67 -x68 -x69 -x70 -x71 -x72 -x73 -x74 -x75 -x76 -x77 x78 -x79 -x80 -x81 x82 -x83 -x84 -x85 -x86 -x87 -x88 -x89 -x90 -x91 -x92 -x93 -x94 -x95 x96 -x97 -x98 -x99 -x100
4617.04/3600.03	o 235.0 207.0 234.0 311.0 247.0
4617.04/3600.03	v -x1 -x2 -x3 -x4 -x5 -x6 -x7 -x8 -x9 x10 -x11 -x12 x13 -x14 -x15 -x16 -x17 -x18 x19 -x20 -x21 x22 -x23 -x24 -x25 -x26 -x27 -x28 -x29 -x30 x31 -x32 -x33 -x34 -x35 -x36 -x37 -x38 -x39 -x40 -x41 -x42 -x43 -x44 -x45 -x46 -x47 -x48 -x49 -x50 -x51 -x52 -x53 -x54 -x55 -x56 -x57 -x58 -x59 -x60 -x61 -x62 -x63 -x64 -x65 -x66 -x67 -x68 -x69 -x70 -x71 -x72 -x73 -x74 -x75 -x76 -x77 x78 -x79 -x80 -x81 x82 -x83 -x84 -x85 -x86 -x87 -x88 -x89 -x90 -x91 -x92 -x93 -x94 -x95 -x96 -x97 -x98 -x99 -x100
4617.04/3600.03	o 342.0 223.0 329.0 248.0 258.0
4617.04/3600.03	v -x1 -x2 -x3 -x4 -x5 -x6 -x7 -x8 -x9 -x10 -x11 -x12 -x13 -x14 -x15 -x16 -x17 -x18 -x19 -x20 -x21 x22 -x23 -x24 -x25 -x26 -x27 -x28 -x29 -x30 -x31 -x32 -x33 -x34 -x35 -x36 -x37 -x38 x39 -x40 -x41 x42 -x43 -x44 -x45 -x46 -x47 -x48 -x49 -x50 x51 -x52 -x53 x54 -x55 -x56 -x57 -x58 -x59 -x60 -x61 -x62 -x63 -x64 -x65 -x66 -x67 -x68 x69 -x70 -x71 -x72 -x73 -x74 -x75 -x76 -x77 -x78 -x79 -x80 -x81 x82 -x83 -x84 -x85 -x86 -x87 -x88 -x89 -x90 -x91 -x92 -x93 -x94 -x95 -x96 -x97 -x98 -x99 -x100
4617.04/3600.03	o 283.0 256.0 261.0 309.0 261.0
4617.04/3600.03	v -x1 -x2 -x3 -x4 -x5 -x6 -x7 -x8 -x9 -x10 -x11 -x12 x13 -x14 -x15 -x16 -x17 -x18 -x19 -x20 -x21 x22 -x23 -x24 -x25 -x26 -x27 -x28 -x29 -x30 -x31 -x32 -x33 -x34 -x35 -x36 -x37 -x38 x39 -x40 -x41 x42 -x43 -x44 -x45 -x46 -x47 -x48 -x49 -x50 -x51 -x52 -x53 x54 -x55 -x56 -x57 -x58 -x59 -x60 -x61 -x62 -x63 -x64 -x65 -x66 -x67 -x68 x69 -x70 -x71 -x72 -x73 -x74 -x75 -x76 -x77 -x78 -x79 -x80 -x81 x82 -x83 -x84 -x85 -x86 -x87 -x88 -x89 -x90 -x91 -x92 -x93 -x94 -x95 -x96 -x97 -x98 -x99 -x100
4617.04/3600.03	o 248.0 278.0 289.0 298.0 263.0
4617.04/3600.03	v -x1 -x2 -x3 -x4 -x5 -x6 -x7 -x8 -x9 -x10 -x11 -x12 -x13 -x14 -x15 -x16 -x17 -x18 -x19 -x20 -x21 x22 -x23 -x24 -x25 -x26 -x27 -x28 -x29 -x30 -x31 -x32 -x33 -x34 -x35 x36 -x37 -x38 -x39 -x40 -x41 -x42 -x43 -x44 -x45 -x46 -x47 -x48 -x49 -x50 x51 -x52 -x53 x54 -x55 -x56 -x57 -x58 -x59 -x60 -x61 -x62 -x63 -x64 -x65 -x66 -x67 -x68 -x69 -x70 -x71 -x72 -x73 -x74 -x75 -x76 -x77 x78 -x79 -x80 -x81 x82 -x83 -x84 -x85 -x86 -x87 -x88 -x89 -x90 -x91 -x92 -x93 -x94 -x95 -x96 -x97 -x98 -x99 -x100
4617.04/3600.03	o 291.0 201.0 166.0 246.0 264.0
4617.04/3600.03	v -x1 -x2 -x3 -x4 -x5 -x6 -x7 -x8 -x9 -x10 -x11 x12 -x13 -x14 -x15 -x16 -x17 -x18 -x19 -x20 -x21 -x22 -x23 -x24 -x25 -x26 -x27 -x28 -x29 -x30 -x31 -x32 -x33 -x34 -x35 -x36 -x37 -x38 x39 -x40 -x41 x42 -x43 -x44 -x45 -x46 -x47 -x48 -x49 -x50 -x51 -x52 -x53 -x54 -x55 -x56 -x57 -x58 -x59 -x60 -x61 -x62 -x63 -x64 -x65 -x66 -x67 -x68 x69 -x70 -x71 -x72 -x73 -x74 -x75 -x76 -x77 -x78 -x79 -x80 -x81 -x82 -x83 -x84 -x85 -x86 -x87 -x88 -x89 -x90 -x91 -x92 -x93 -x94 -x95 x96 -x97 -x98 -x99 -x100
4617.04/3600.03	o 215.0 222.0 291.0 318.0 177.0
4617.04/3600.03	v -x1 -x2 -x3 -x4 -x5 -x6 -x7 -x8 -x9 -x10 -x11 -x12 x13 -x14 -x15 -x16 -x17 -x18 -x19 -x20 -x21 x22 -x23 -x24 -x25 -x26 -x27 -x28 -x29 -x30 -x31 -x32 -x33 -x34 -x35 -x36 -x37 -x38 x39 -x40 -x41 -x42 -x43 -x44 -x45 -x46 -x47 -x48 -x49 -x50 -x51 -x52 -x53 x54 x55 -x56 -x57 -x58 -x59 -x60 -x61 -x62 -x63 -x64 -x65 -x66 -x67 -x68 -x69 -x70 -x71 -x72 x73 -x74 -x75 -x76 -x77 -x78 -x79 -x80 -x81 x82 -x83 -x84 -x85 -x86 -x87 -x88 -x89 -x90 -x91 -x92 -x93 -x94 -x95 -x96 -x97 -x98 -x99 -x100
4617.04/3600.03	o 365.0 221.0 246.0 228.0 267.0
4617.04/3600.03	v -x1 -x2 -x3 -x4 -x5 -x6 -x7 -x8 -x9 -x10 -x11 -x12 -x13 x14 -x15 -x16 -x17 -x18 -x19 -x20 -x21 x22 -x23 -x24 -x25 -x26 -x27 -x28 -x29 -x30 -x31 -x32 -x33 -x34 -x35 -x36 -x37 -x38 -x39 -x40 -x41 -x42 -x43 -x44 -x45 -x46 -x47 -x48 -x49 -x50 -x51 -x52 -x53 x54 -x55 -x56 -x57 -x58 -x59 -x60 -x61 -x62 -x63 -x64 -x65 -x66 -x67 -x68 -x69 -x70 -x71 -x72 x73 -x74 -x75 -x76 -x77 x78 -x79 -x80 -x81 x82 -x83 -x84 -x85 -x86 -x87 -x88 -x89 -x90 -x91 -x92 -x93 -x94 -x95 x96 -x97 -x98 -x99 -x100
4617.04/3600.03	o 369.0 239.0 336.0 211.0 258.0
4617.04/3600.03	v -x1 -x2 -x3 -x4 -x5 -x6 -x7 -x8 -x9 -x10 -x11 -x12 -x13 -x14 -x15 -x16 -x17 -x18 -x19 -x20 -x21 x22 -x23 -x24 -x25 -x26 -x27 -x28 -x29 -x30 -x31 -x32 -x33 -x34 -x35 -x36 -x37 -x38 -x39 -x40 -x41 -x42 -x43 -x44 -x45 -x46 -x47 -x48 -x49 -x50 x51 -x52 -x53 x54 -x55 -x56 -x57 -x58 -x59 -x60 -x61 -x62 -x63 -x64 -x65 -x66 -x67 -x68 -x69 -x70 -x71 -x72 x73 -x74 -x75 -x76 -x77 x78 -x79 -x80 -x81 x82 -x83 -x84 -x85 -x86 -x87 -x88 -x89 -x90 -x91 -x92 -x93 -x94 -x95 -x96 -x97 -x98 -x99 -x100
4617.04/3600.03	o 305.0 174.0 186.0 182.0 268.0
4617.04/3600.03	v -x1 -x2 -x3 -x4 -x5 -x6 -x7 -x8 -x9 -x10 -x11 -x12 x13 x14 -x15 -x16 -x17 -x18 -x19 -x20 -x21 x22 -x23 -x24 -x25 -x26 -x27 -x28 -x29 -x30 -x31 -x32 -x33 -x34 -x35 x36 -x37 -x38 -x39 -x40 -x41 -x42 -x43 -x44 -x45 -x46 -x47 -x48 -x49 -x50 -x51 -x52 -x53 x54 -x55 -x56 -x57 -x58 -x59 -x60 -x61 -x62 -x63 -x64 -x65 -x66 -x67 -x68 -x69 -x70 -x71 -x72 -x73 -x74 -x75 -x76 -x77 x78 -x79 -x80 -x81 x82 -x83 -x84 -x85 -x86 -x87 -x88 -x89 -x90 -x91 -x92 -x93 -x94 -x95 -x96 -x97 -x98 -x99 -x100
4617.04/3600.03	o 284.0 253.0 263.0 260.0 270.0
4617.04/3600.03	v -x1 -x2 -x3 -x4 -x5 -x6 -x7 -x8 -x9 -x10 -x11 x12 -x13 -x14 -x15 -x16 -x17 -x18 -x19 -x20 -x21 -x22 -x23 -x24 -x25 -x26 -x27 -x28 -x29 -x30 -x31 -x32 -x33 -x34 -x35 -x36 -x37 -x38 -x39 -x40 -x41 x42 -x43 -x44 -x45 -x46 -x47 -x48 -x49 -x50 -x51 -x52 -x53 -x54 -x55 -x56 -x57 -x58 -x59 -x60 -x61 -x62 -x63 -x64 -x65 -x66 -x67 -x68 x69 -x70 -x71 -x72 -x73 -x74 -x75 -x76 -x77 x78 -x79 -x80 -x81 -x82 -x83 -x84 -x85 -x86 -x87 -x88 -x89 -x90 -x91 -x92 -x93 -x94 -x95 x96 -x97 -x98 -x99 -x100
4617.04/3600.03	o 168.0 211.0 278.0 325.0 250.0
4617.04/3600.03	v -x1 -x2 -x3 -x4 -x5 -x6 -x7 -x8 -x9 -x10 -x11 -x12 x13 -x14 -x15 -x16 -x17 -x18 x19 -x20 -x21 x22 -x23 -x24 -x25 -x26 -x27 -x28 -x29 -x30 -x31 -x32 -x33 -x34 -x35 x36 -x37 -x38 -x39 -x40 -x41 -x42 -x43 -x44 -x45 -x46 -x47 -x48 -x49 -x50 -x51 -x52 -x53 x54 -x55 -x56 -x57 -x58 -x59 -x60 -x61 -x62 -x63 -x64 -x65 -x66 -x67 -x68 -x69 -x70 -x71 -x72 -x73 -x74 -x75 -x76 -x77 x78 -x79 -x80 -x81 x82 -x83 -x84 -x85 -x86 -x87 -x88 -x89 -x90 -x91 -x92 -x93 -x94 -x95 -x96 -x97 -x98 -x99 -x100
4617.04/3600.03	o 262.0 262.0 294.0 272.0 271.0
4617.04/3600.03	v -x1 -x2 -x3 -x4 -x5 -x6 -x7 -x8 -x9 -x10 -x11 -x12 -x13 -x14 -x15 -x16 -x17 -x18 -x19 -x20 -x21 x22 -x23 -x24 -x25 -x26 -x27 -x28 -x29 -x30 -x31 -x32 -x33 -x34 -x35 -x36 -x37 -x38 -x39 -x40 -x41 -x42 -x43 x44 -x45 -x46 -x47 -x48 -x49 -x50 x51 -x52 -x53 x54 -x55 -x56 -x57 -x58 -x59 -x60 -x61 -x62 -x63 -x64 -x65 -x66 -x67 -x68 -x69 -x70 -x71 -x72 -x73 -x74 -x75 -x76 -x77 x78 -x79 -x80 -x81 x82 -x83 -x84 -x85 -x86 -x87 -x88 -x89 -x90 -x91 -x92 -x93 -x94 -x95 -x96 -x97 -x98 -x99 -x100
4617.04/3600.03	o 303.0 217.0 162.0 251.0 272.0
4617.04/3600.03	v -x1 -x2 -x3 -x4 -x5 -x6 -x7 -x8 -x9 -x10 -x11 -x12 x13 -x14 -x15 -x16 -x17 -x18 -x19 -x20 -x21 x22 -x23 -x24 -x25 -x26 -x27 -x28 -x29 -x30 -x31 -x32 -x33 -x34 -x35 -x36 -x37 -x38 -x39 -x40 -x41 -x42 -x43 x44 -x45 -x46 -x47 -x48 -x49 -x50 -x51 -x52 -x53 x54 -x55 -x56 -x57 -x58 -x59 -x60 -x61 -x62 -x63 -x64 -x65 -x66 -x67 -x68 -x69 -x70 -x71 -x72 -x73 -x74 -x75 -x76 -x77 x78 -x79 -x80 -x81 x82 -x83 -x84 -x85 -x86 -x87 -x88 -x89 -x90 -x91 -x92 -x93 -x94 -x95 -x96 -x97 -x98 -x99 -x100
4617.04/3600.03	o 268.0 239.0 190.0 240.0 274.0
4617.04/3600.03	v -x1 -x2 -x3 -x4 -x5 -x6 -x7 -x8 -x9 -x10 -x11 -x12 x13 x14 -x15 -x16 -x17 -x18 -x19 -x20 -x21 x22 -x23 -x24 -x25 -x26 -x27 -x28 -x29 -x30 -x31 -x32 -x33 -x34 -x35 -x36 -x37 -x38 -x39 -x40 -x41 -x42 -x43 -x44 -x45 -x46 -x47 -x48 -x49 -x50 -x51 -x52 -x53 x54 -x55 -x56 -x57 -x58 -x59 -x60 -x61 -x62 -x63 -x64 -x65 -x66 -x67 -x68 -x69 -x70 -x71 -x72 x73 -x74 -x75 -x76 -x77 x78 -x79 -x80 -x81 x82 -x83 -x84 -x85 -x86 -x87 -x88 -x89 -x90 -x91 -x92 -x93 -x94 -x95 -x96 -x97 -x98 -x99 -x100
4617.04/3600.03	o 298.0 226.0 283.0 196.0 274.0
4617.04/3600.03	v -x1 -x2 -x3 -x4 -x5 -x6 -x7 -x8 -x9 x10 -x11 -x12 -x13 -x14 -x15 -x16 -x17 -x18 -x19 -x20 -x21 x22 -x23 -x24 -x25 -x26 -x27 -x28 -x29 -x30 -x31 -x32 -x33 -x34 -x35 -x36 -x37 -x38 -x39 -x40 x41 -x42 -x43 -x44 -x45 -x46 -x47 -x48 -x49 -x50 -x51 -x52 -x53 x54 -x55 -x56 -x57 -x58 -x59 -x60 -x61 -x62 -x63 -x64 -x65 -x66 -x67 -x68 -x69 -x70 -x71 -x72 -x73 -x74 -x75 -x76 -x77 -x78 -x79 -x80 -x81 x82 -x83 -x84 -x85 x86 -x87 -x88 -x89 -x90 -x91 -x92 -x93 -x94 -x95 -x96 -x97 -x98 -x99 -x100
4617.04/3600.03	o 375.0 287.0 266.0 230.0 244.0
4617.04/3600.03	v -x1 -x2 -x3 -x4 -x5 -x6 -x7 -x8 -x9 -x10 -x11 -x12 x13 -x14 -x15 -x16 -x17 -x18 x19 -x20 -x21 x22 -x23 -x24 -x25 -x26 -x27 -x28 -x29 -x30 -x31 -x32 -x33 -x34 -x35 -x36 -x37 -x38 -x39 -x40 -x41 -x42 -x43 -x44 -x45 -x46 -x47 -x48 -x49 -x50 -x51 -x52 -x53 x54 -x55 -x56 -x57 -x58 -x59 -x60 -x61 -x62 -x63 -x64 -x65 -x66 -x67 -x68 -x69 -x70 -x71 -x72 x73 -x74 -x75 -x76 -x77 x78 -x79 -x80 -x81 x82 -x83 -x84 -x85 -x86 -x87 -x88 -x89 -x90 -x91 -x92 -x93 -x94 -x95 -x96 -x97 -x98 -x99 -x100
4617.04/3600.03	o 276.0 235.0 314.0 208.0 275.0
4617.04/3600.03	v -x1 -x2 -x3 -x4 -x5 -x6 -x7 -x8 -x9 -x10 -x11 -x12 -x13 x14 -x15 -x16 -x17 -x18 -x19 -x20 -x21 -x22 -x23 -x24 -x25 -x26 -x27 -x28 -x29 -x30 -x31 -x32 -x33 -x34 -x35 -x36 -x37 -x38 -x39 -x40 -x41 -x42 -x43 -x44 -x45 -x46 -x47 -x48 -x49 -x50 x51 -x52 -x53 x54 -x55 -x56 -x57 -x58 -x59 -x60 -x61 -x62 -x63 -x64 -x65 -x66 -x67 -x68 -x69 -x70 -x71 -x72 x73 -x74 -x75 -x76 -x77 x78 -x79 -x80 -x81 x82 -x83 -x84 -x85 -x86 -x87 -x88 -x89 -x90 -x91 -x92 x93 -x94 -x95 -x96 -x97 -x98 -x99 -x100
4617.04/3600.03	o 299.0 182.0 237.0 253.0 275.0
4617.04/3600.03	v -x1 -x2 -x3 -x4 -x5 -x6 -x7 -x8 -x9 -x10 -x11 -x12 x13 x14 -x15 -x16 -x17 -x18 -x19 -x20 -x21 -x22 -x23 -x24 -x25 -x26 -x27 -x28 -x29 -x30 -x31 -x32 -x33 -x34 -x35 -x36 -x37 -x38 -x39 -x40 x41 -x42 -x43 -x44 -x45 -x46 -x47 -x48 -x49 -x50 -x51 -x52 -x53 x54 -x55 -x56 -x57 -x58 -x59 -x60 -x61 -x62 -x63 -x64 -x65 -x66 -x67 -x68 -x69 -x70 -x71 -x72 -x73 -x74 -x75 -x76 -x77 -x78 -x79 -x80 -x81 x82 -x83 -x84 -x85 -x86 -x87 -x88 -x89 -x90 -x91 -x92 x93 x94 -x95 -x96 -x97 -x98 -x99 -x100
4617.04/3600.03	o 262.0 190.0 261.0 326.0 276.0
4617.04/3600.03	v -x1 -x2 -x3 -x4 -x5 -x6 -x7 -x8 -x9 -x10 -x11 -x12 x13 x14 -x15 -x16 -x17 -x18 -x19 -x20 -x21 -x22 -x23 -x24 -x25 -x26 -x27 -x28 -x29 -x30 -x31 -x32 -x33 -x34 -x35 -x36 -x37 -x38 -x39 -x40 -x41 -x42 -x43 -x44 -x45 -x46 -x47 -x48 -x49 -x50 -x51 -x52 -x53 x54 -x55 -x56 -x57 -x58 -x59 -x60 -x61 -x62 -x63 -x64 -x65 -x66 -x67 -x68 -x69 -x70 -x71 -x72 x73 -x74 -x75 -x76 -x77 x78 -x79 -x80 -x81 x82 -x83 -x84 -x85 -x86 -x87 -x88 -x89 -x90 -x91 -x92 x93 -x94 -x95 -x96 -x97 -x98 -x99 -x100
4617.04/3600.03	o 264.0 204.0 265.0 242.0 277.0
4617.04/3600.04	v -x1 -x2 -x3 -x4 -x5 -x6 -x7 -x8 x9 -x10 -x11 -x12 -x13 x14 -x15 -x16 -x17 -x18 -x19 -x20 -x21 x22 -x23 -x24 -x25 -x26 -x27 -x28 -x29 -x30 -x31 -x32 -x33 -x34 -x35 -x36 -x37 -x38 -x39 -x40 x41 -x42 -x43 -x44 -x45 -x46 -x47 -x48 -x49 -x50 -x51 -x52 -x53 x54 -x55 -x56 -x57 -x58 -x59 -x60 -x61 -x62 -x63 -x64 -x65 -x66 -x67 -x68 -x69 -x70 -x71 -x72 -x73 -x74 -x75 -x76 -x77 -x78 -x79 -x80 -x81 x82 -x83 -x84 -x85 -x86 -x87 -x88 -x89 -x90 -x91 -x92 -x93 -x94 -x95 -x96 -x97 -x98 -x99 -x100
4617.04/3600.04	o 380.0 235.0 272.0 199.0 238.0
4617.04/3600.04	v -x1 -x2 -x3 -x4 -x5 -x6 -x7 -x8 -x9 -x10 -x11 -x12 -x13 -x14 -x15 -x16 -x17 -x18 -x19 -x20 -x21 x22 -x23 -x24 -x25 -x26 -x27 -x28 -x29 -x30 -x31 -x32 -x33 -x34 -x35 -x36 -x37 -x38 x39 -x40 x41 -x42 -x43 -x44 -x45 -x46 -x47 -x48 -x49 -x50 -x51 -x52 -x53 x54 -x55 -x56 -x57 -x58 -x59 -x60 -x61 -x62 -x63 -x64 -x65 -x66 -x67 -x68 -x69 -x70 -x71 -x72 -x73 -x74 -x75 -x76 -x77 -x78 -x79 -x80 -x81 x82 -x83 -x84 -x85 x86 -x87 -x88 -x89 -x90 -x91 -x92 -x93 -x94 -x95 -x96 -x97 -x98 -x99 -x100
4617.04/3600.04	o 383.0 290.0 265.0 228.0 258.0
4617.04/3600.04	v -x1 -x2 -x3 -x4 -x5 -x6 -x7 -x8 -x9 -x10 -x11 -x12 -x13 -x14 -x15 -x16 -x17 -x18 -x19 -x20 -x21 x22 -x23 -x24 -x25 -x26 -x27 -x28 -x29 -x30 -x31 -x32 -x33 -x34 -x35 -x36 -x37 -x38 -x39 -x40 -x41 x42 -x43 -x44 -x45 -x46 -x47 -x48 -x49 -x50 x51 -x52 -x53 x54 -x55 -x56 -x57 -x58 -x59 -x60 -x61 -x62 -x63 -x64 -x65 -x66 -x67 -x68 -x69 -x70 -x71 -x72 -x73 -x74 -x75 -x76 -x77 x78 -x79 -x80 -x81 x82 -x83 -x84 -x85 -x86 -x87 -x88 -x89 -x90 -x91 -x92 -x93 -x94 -x95 -x96 -x97 -x98 -x99 -x100
4617.04/3600.04	o 233.0 155.0 155.0 263.0 283.0
4617.04/3600.04	v -x1 -x2 -x3 -x4 -x5 -x6 -x7 -x8 -x9 -x10 -x11 -x12 -x13 x14 -x15 -x16 -x17 -x18 -x19 -x20 -x21 -x22 -x23 -x24 -x25 -x26 -x27 -x28 -x29 -x30 -x31 -x32 -x33 -x34 -x35 -x36 -x37 -x38 -x39 -x40 x41 -x42 -x43 -x44 -x45 -x46 -x47 -x48 -x49 -x50 x51 -x52 -x53 x54 -x55 -x56 -x57 -x58 -x59 -x60 -x61 -x62 -x63 -x64 -x65 -x66 -x67 -x68 -x69 -x70 -x71 -x72 -x73 -x74 -x75 -x76 -x77 -x78 -x79 -x80 -x81 x82 -x83 -x84 -x85 -x86 -x87 -x88 -x89 -x90 -x91 -x92 x93 x94 -x95 -x96 -x97 -x98 -x99 -x100
4617.04/3600.04	o 297.0 168.0 233.0 337.0 274.0
4617.04/3600.04	v -x1 -x2 -x3 -x4 -x5 -x6 -x7 -x8 -x9 -x10 -x11 -x12 -x13 -x14 -x15 -x16 -x17 -x18 -x19 -x20 -x21 x22 -x23 -x24 -x25 -x26 -x27 -x28 -x29 -x30 -x31 -x32 -x33 -x34 -x35 -x36 -x37 -x38 -x39 -x40 x41 -x42 -x43 -x44 -x45 -x46 -x47 -x48 -x49 -x50 -x51 -x52 -x53 x54 -x55 -x56 -x57 -x58 x59 -x60 -x61 -x62 -x63 -x64 -x65 -x66 -x67 -x68 -x69 -x70 -x71 -x72 -x73 -x74 -x75 -x76 -x77 -x78 -x79 -x80 -x81 x82 -x83 -x84 -x85 x86 -x87 -x88 -x89 -x90 -x91 -x92 -x93 -x94 -x95 -x96 -x97 -x98 -x99 -x100
4617.04/3600.04	o 385.0 327.0 221.0 248.0 253.0
4617.04/3600.04	v -x1 -x2 -x3 -x4 -x5 -x6 -x7 -x8 -x9 x10 -x11 -x12 -x13 -x14 -x15 -x16 -x17 -x18 -x19 -x20 -x21 x22 -x23 -x24 -x25 -x26 -x27 -x28 -x29 -x30 -x31 -x32 -x33 -x34 -x35 -x36 -x37 -x38 -x39 -x40 x41 -x42 -x43 -x44 -x45 -x46 -x47 -x48 -x49 -x50 -x51 -x52 -x53 -x54 -x55 -x56 -x57 -x58 -x59 -x60 -x61 -x62 -x63 -x64 -x65 -x66 -x67 -x68 -x69 -x70 -x71 -x72 -x73 -x74 -x75 -x76 -x77 -x78 -x79 -x80 -x81 x82 -x83 -x84 -x85 -x86 -x87 -x88 -x89 -x90 -x91 -x92 -x93 -x94 -x95 x96 -x97 -x98 -x99 -x100
4617.04/3600.04	o 389.0 211.0 280.0 267.0 93.0
4617.04/3600.04	v -x1 -x2 -x3 -x4 -x5 -x6 -x7 -x8 -x9 -x10 -x11 -x12 -x13 -x14 -x15 -x16 -x17 -x18 -x19 -x20 -x21 x22 -x23 -x24 -x25 -x26 -x27 -x28 -x29 -x30 -x31 -x32 -x33 -x34 -x35 -x36 -x37 -x38 -x39 -x40 -x41 -x42 -x43 -x44 -x45 -x46 -x47 -x48 -x49 -x50 x51 -x52 -x53 x54 -x55 -x56 -x57 -x58 -x59 -x60 -x61 -x62 -x63 -x64 -x65 -x66 -x67 -x68 -x69 -x70 x71 -x72 -x73 -x74 -x75 -x76 -x77 x78 -x79 -x80 -x81 x82 -x83 -x84 -x85 -x86 -x87 -x88 -x89 -x90 -x91 -x92 -x93 -x94 -x95 -x96 -x97 -x98 -x99 -x100
4617.04/3600.04	o 292.0 172.0 155.0 244.0 288.0
4617.04/3600.04	v -x1 -x2 -x3 -x4 -x5 -x6 -x7 -x8 -x9 x10 -x11 -x12 -x13 -x14 -x15 -x16 -x17 -x18 -x19 -x20 -x21 x22 -x23 -x24 -x25 -x26 -x27 -x28 -x29 -x30 -x31 -x32 -x33 -x34 -x35 -x36 -x37 -x38 -x39 -x40 -x41 -x42 -x43 x44 -x45 -x46 -x47 -x48 -x49 -x50 -x51 -x52 -x53 -x54 -x55 -x56 -x57 -x58 -x59 -x60 -x61 -x62 -x63 -x64 -x65 -x66 -x67 -x68 -x69 -x70 -x71 -x72 -x73 -x74 -x75 -x76 -x77 x78 -x79 -x80 -x81 x82 -x83 -x84 -x85 -x86 -x87 -x88 -x89 -x90 -x91 -x92 -x93 -x94 -x95 x96 -x97 -x98 -x99 -x100
4617.04/3600.04	o 390.0 270.0 278.0 267.0 165.0
4617.04/3600.04	v -x1 -x2 -x3 -x4 -x5 -x6 -x7 -x8 -x9 x10 -x11 -x12 -x13 -x14 -x15 -x16 -x17 -x18 -x19 -x20 -x21 x22 -x23 -x24 -x25 -x26 -x27 -x28 -x29 -x30 -x31 -x32 -x33 -x34 -x35 -x36 -x37 -x38 -x39 -x40 x41 -x42 -x43 -x44 -x45 -x46 -x47 -x48 -x49 -x50 -x51 -x52 -x53 -x54 -x55 -x56 -x57 -x58 -x59 -x60 -x61 -x62 -x63 -x64 -x65 -x66 -x67 -x68 -x69 -x70 -x71 -x72 -x73 -x74 -x75 -x76 -x77 -x78 -x79 -x80 -x81 -x82 -x83 -x84 -x85 -x86 -x87 -x88 -x89 x90 -x91 x92 -x93 -x94 -x95 x96 -x97 -x98 -x99 -x100
4617.04/3600.04	o 368.0 269.0 348.0 343.0 138.0
4617.04/3600.04	v -x1 -x2 -x3 -x4 -x5 -x6 -x7 -x8 -x9 -x10 -x11 -x12 x13 x14 -x15 -x16 -x17 -x18 -x19 -x20 -x21 x22 -x23 -x24 -x25 -x26 -x27 -x28 -x29 -x30 -x31 -x32 -x33 -x34 -x35 -x36 -x37 -x38 -x39 -x40 -x41 x42 -x43 -x44 -x45 -x46 -x47 -x48 -x49 -x50 -x51 -x52 -x53 x54 -x55 -x56 -x57 -x58 -x59 -x60 -x61 -x62 -x63 -x64 -x65 -x66 -x67 -x68 -x69 -x70 -x71 -x72 -x73 -x74 -x75 -x76 -x77 x78 -x79 -x80 -x81 x82 -x83 -x84 -x85 -x86 -x87 -x88 -x89 -x90 -x91 -x92 -x93 -x94 -x95 -x96 -x97 -x98 -x99 -x100
4617.04/3600.04	o 226.0 207.0 252.0 277.0 289.0
4617.04/3600.04	v -x1 -x2 -x3 -x4 -x5 -x6 -x7 -x8 -x9 -x10 -x11 -x12 -x13 x14 -x15 -x16 -x17 -x18 -x19 -x20 -x21 -x22 -x23 -x24 -x25 -x26 -x27 -x28 -x29 -x30 -x31 -x32 -x33 -x34 -x35 -x36 -x37 -x38 -x39 -x40 -x41 x42 -x43 -x44 -x45 -x46 -x47 -x48 -x49 -x50 x51 -x52 -x53 x54 -x55 -x56 -x57 -x58 -x59 -x60 -x61 -x62 -x63 -x64 -x65 -x66 -x67 -x68 -x69 -x70 -x71 -x72 -x73 -x74 -x75 -x76 -x77 x78 -x79 -x80 -x81 x82 -x83 -x84 -x85 -x86 -x87 -x88 -x89 -x90 -x91 -x92 x93 -x94 -x95 -x96 -x97 -x98 -x99 -x100
4617.04/3600.04	o 227.0 163.0 206.0 334.0 290.0
4617.04/3600.04	v -x1 -x2 -x3 -x4 -x5 -x6 -x7 -x8 -x9 -x10 -x11 -x12 x13 -x14 -x15 -x16 -x17 -x18 x19 -x20 -x21 x22 -x23 -x24 -x25 -x26 -x27 -x28 -x29 -x30 -x31 -x32 -x33 -x34 -x35 -x36 -x37 -x38 -x39 -x40 -x41 x42 -x43 -x44 -x45 -x46 -x47 -x48 -x49 -x50 -x51 -x52 -x53 x54 -x55 -x56 -x57 -x58 -x59 -x60 -x61 -x62 -x63 -x64 -x65 -x66 -x67 -x68 -x69 -x70 -x71 -x72 -x73 -x74 -x75 -x76 -x77 x78 -x79 -x80 -x81 x82 -x83 -x84 -x85 -x86 -x87 -x88 -x89 -x90 -x91 -x92 -x93 -x94 -x95 -x96 -x97 -x98 -x99 -x100
4617.04/3600.04	o 204.0 216.0 283.0 289.0 290.0
4617.04/3600.04	v -x1 -x2 -x3 -x4 -x5 -x6 -x7 -x8 -x9 x10 -x11 -x12 -x13 -x14 -x15 -x16 -x17 -x18 -x19 -x20 -x21 x22 -x23 -x24 -x25 x26 -x27 -x28 -x29 -x30 -x31 -x32 -x33 -x34 -x35 -x36 -x37 -x38 -x39 -x40 x41 -x42 -x43 -x44 -x45 -x46 -x47 -x48 -x49 -x50 -x51 -x52 -x53 -x54 -x55 -x56 -x57 -x58 -x59 -x60 -x61 -x62 -x63 -x64 x65 -x66 -x67 -x68 -x69 -x70 -x71 -x72 -x73 -x74 -x75 -x76 -x77 -x78 -x79 -x80 -x81 -x82 -x83 -x84 -x85 -x86 -x87 -x88 -x89 -x90 -x91 -x92 -x93 -x94 -x95 x96 -x97 -x98 -x99 -x100
4617.04/3600.04	o 375.0 296.0 364.0 314.0 153.0
4617.04/3600.04	v -x1 -x2 -x3 -x4 x5 -x6 -x7 -x8 -x9 x10 -x11 x12 -x13 -x14 -x15 -x16 -x17 -x18 -x19 -x20 -x21 -x22 -x23 -x24 -x25 x26 -x27 -x28 -x29 -x30 -x31 -x32 -x33 -x34 -x35 -x36 -x37 -x38 -x39 -x40 x41 -x42 -x43 -x44 -x45 -x46 -x47 -x48 -x49 -x50 -x51 -x52 -x53 -x54 -x55 -x56 -x57 -x58 -x59 -x60 -x61 -x62 -x63 -x64 -x65 -x66 -x67 -x68 -x69 -x70 -x71 -x72 -x73 -x74 -x75 -x76 -x77 -x78 -x79 -x80 -x81 -x82 -x83 -x84 -x85 -x86 -x87 -x88 -x89 -x90 -x91 -x92 -x93 -x94 -x95 x96 -x97 -x98 -x99 -x100
4617.04/3600.04	o 339.0 285.0 363.0 345.0 173.0
4617.04/3600.04	v -x1 -x2 -x3 -x4 -x5 -x6 -x7 -x8 x9 -x10 -x11 -x12 -x13 -x14 -x15 -x16 -x17 -x18 -x19 -x20 -x21 x22 -x23 -x24 -x25 -x26 -x27 -x28 -x29 -x30 -x31 -x32 -x33 -x34 -x35 -x36 -x37 -x38 -x39 -x40 x41 -x42 -x43 -x44 -x45 -x46 -x47 -x48 -x49 -x50 -x51 x52 -x53 x54 -x55 -x56 -x57 -x58 -x59 -x60 -x61 -x62 -x63 -x64 -x65 -x66 -x67 -x68 -x69 -x70 -x71 -x72 -x73 -x74 -x75 -x76 -x77 -x78 -x79 -x80 -x81 x82 -x83 -x84 -x85 -x86 -x87 -x88 -x89 -x90 -x91 -x92 -x93 -x94 -x95 -x96 -x97 -x98 -x99 -x100
4617.04/3600.04	o 393.0 300.0 271.0 200.0 263.0
4617.04/3600.04	v -x1 -x2 -x3 -x4 -x5 -x6 -x7 -x8 -x9 -x10 -x11 -x12 x13 x14 -x15 -x16 -x17 -x18 -x19 -x20 -x21 -x22 -x23 -x24 -x25 -x26 -x27 -x28 -x29 -x30 -x31 -x32 -x33 -x34 -x35 -x36 -x37 -x38 -x39 -x40 -x41 x42 -x43 -x44 -x45 -x46 -x47 -x48 -x49 -x50 -x51 -x52 -x53 x54 -x55 -x56 -x57 -x58 -x59 -x60 -x61 -x62 -x63 -x64 -x65 -x66 -x67 -x68 -x69 -x70 -x71 -x72 -x73 -x74 -x75 -x76 -x77 x78 -x79 -x80 -x81 x82 -x83 -x84 -x85 -x86 -x87 -x88 -x89 -x90 -x91 -x92 x93 -x94 -x95 -x96 -x97 -x98 -x99 -x100
4617.04/3600.04	o 192.0 185.0 234.0 323.0 292.0
4617.04/3600.04	v -x1 -x2 -x3 -x4 x5 -x6 -x7 -x8 -x9 -x10 -x11 x12 -x13 -x14 -x15 -x16 -x17 -x18 -x19 -x20 -x21 -x22 -x23 -x24 -x25 -x26 -x27 -x28 -x29 -x30 -x31 -x32 -x33 -x34 -x35 -x36 -x37 -x38 -x39 -x40 -x41 x42 -x43 -x44 -x45 -x46 -x47 -x48 -x49 -x50 -x51 -x52 -x53 -x54 -x55 -x56 -x57 -x58 -x59 -x60 -x61 -x62 -x63 -x64 -x65 -x66 -x67 -x68 -x69 -x70 -x71 -x72 -x73 -x74 -x75 -x76 -x77 x78 -x79 -x80 -x81 -x82 -x83 -x84 -x85 -x86 -x87 -x88 -x89 -x90 -x91 -x92 -x93 x94 -x95 x96 -x97 -x98 -x99 -x100
4617.04/3600.04	o 185.0 199.0 226.0 297.0 294.0
4617.04/3600.04	v -x1 -x2 -x3 x4 -x5 -x6 -x7 -x8 -x9 -x10 -x11 -x12 -x13 -x14 -x15 -x16 -x17 -x18 -x19 -x20 -x21 x22 -x23 -x24 -x25 -x26 -x27 -x28 -x29 -x30 -x31 -x32 -x33 -x34 -x35 -x36 -x37 -x38 -x39 -x40 -x41 x42 -x43 -x44 -x45 -x46 -x47 -x48 -x49 -x50 x51 -x52 -x53 x54 x55 -x56 -x57 -x58 -x59 -x60 -x61 -x62 -x63 -x64 -x65 -x66 -x67 -x68 -x69 -x70 -x71 -x72 -x73 -x74 -x75 -x76 -x77 -x78 -x79 -x80 -x81 -x82 -x83 -x84 -x85 -x86 -x87 -x88 -x89 -x90 -x91 -x92 -x93 -x94 -x95 -x96 -x97 -x98 -x99 -x100
4617.04/3600.04	o 262.0 142.0 117.0 348.0 291.0
4617.04/3600.04	v -x1 -x2 -x3 -x4 -x5 -x6 -x7 -x8 -x9 -x10 -x11 x12 -x13 -x14 -x15 -x16 -x17 -x18 -x19 -x20 -x21 x22 -x23 -x24 -x25 -x26 -x27 -x28 -x29 -x30 -x31 -x32 -x33 -x34 -x35 -x36 -x37 -x38 -x39 -x40 x41 -x42 x43 -x44 -x45 -x46 -x47 -x48 -x49 -x50 -x51 -x52 -x53 -x54 -x55 -x56 -x57 -x58 -x59 -x60 -x61 -x62 -x63 -x64 -x65 -x66 -x67 -x68 -x69 -x70 -x71 -x72 -x73 -x74 -x75 -x76 -x77 -x78 -x79 -x80 -x81 -x82 -x83 -x84 -x85 -x86 -x87 -x88 -x89 -x90 -x91 -x92 -x93 -x94 -x95 x96 -x97 -x98 -x99 -x100
4617.04/3600.04	o 388.0 252.0 266.0 348.0 168.0
4617.04/3600.04	v -x1 -x2 -x3 -x4 -x5 -x6 -x7 -x8 -x9 -x10 -x11 -x12 -x13 -x14 -x15 -x16 -x17 -x18 x19 -x20 -x21 x22 -x23 -x24 -x25 -x26 -x27 -x28 -x29 -x30 -x31 -x32 -x33 -x34 -x35 -x36 -x37 -x38 -x39 -x40 -x41 -x42 -x43 -x44 -x45 -x46 -x47 -x48 -x49 -x50 -x51 -x52 -x53 x54 -x55 -x56 -x57 -x58 -x59 -x60 -x61 -x62 -x63 -x64 -x65 -x66 -x67 -x68 -x69 -x70 -x71 -x72 x73 -x74 -x75 -x76 -x77 x78 -x79 -x80 -x81 x82 -x83 -x84 -x85 -x86 -x87 -x88 -x89 -x90 -x91 -x92 -x93 -x94 -x95 x96 -x97 -x98 -x99 -x100
4617.04/3600.04	o 347.0 248.0 367.0 223.0 259.0
4617.04/3600.04	v -x1 -x2 -x3 -x4 -x5 -x6 -x7 -x8 -x9 -x10 -x11 -x12 x13 x14 -x15 -x16 -x17 -x18 -x19 -x20 -x21 x22 -x23 -x24 -x25 -x26 -x27 -x28 -x29 -x30 -x31 -x32 -x33 -x34 -x35 -x36 -x37 -x38 -x39 -x40 -x41 -x42 -x43 -x44 -x45 -x46 -x47 -x48 -x49 -x50 -x51 -x52 -x53 x54 -x55 -x56 -x57 -x58 -x59 -x60 -x61 -x62 -x63 -x64 -x65 -x66 -x67 -x68 -x69 -x70 x71 -x72 -x73 -x74 -x75 -x76 -x77 x78 -x79 -x80 -x81 x82 -x83 -x84 -x85 -x86 -x87 -x88 -x89 -x90 -x91 -x92 -x93 -x94 -x95 -x96 -x97 -x98 -x99 -x100
4617.04/3600.04	o 285.0 224.0 252.0 258.0 294.0
4617.04/3600.04	v -x1 -x2 -x3 -x4 -x5 -x6 -x7 -x8 -x9 -x10 -x11 -x12 -x13 -x14 -x15 -x16 -x17 -x18 -x19 -x20 -x21 -x22 -x23 -x24 -x25 -x26 -x27 -x28 -x29 -x30 -x31 -x32 -x33 -x34 -x35 -x36 -x37 -x38 x39 -x40 -x41 -x42 -x43 -x44 -x45 -x46 -x47 -x48 x49 -x50 x51 -x52 -x53 x54 -x55 -x56 -x57 -x58 -x59 -x60 -x61 -x62 -x63 -x64 -x65 -x66 -x67 -x68 x69 -x70 -x71 -x72 x73 -x74 -x75 -x76 -x77 -x78 -x79 -x80 -x81 x82 -x83 -x84 -x85 -x86 -x87 -x88 -x89 -x90 -x91 -x92 -x93 -x94 -x95 -x96 -x97 -x98 -x99 -x100
4617.04/3600.04	o 286.0 319.0 297.0 211.0 296.0
4617.04/3600.04	v -x1 -x2 -x3 -x4 -x5 -x6 -x7 -x8 -x9 x10 -x11 -x12 -x13 x14 -x15 -x16 -x17 -x18 -x19 -x20 -x21 -x22 -x23 -x24 -x25 -x26 -x27 -x28 -x29 -x30 -x31 -x32 -x33 -x34 -x35 -x36 -x37 -x38 -x39 -x40 -x41 x42 -x43 -x44 -x45 -x46 -x47 -x48 -x49 -x50 -x51 -x52 -x53 -x54 -x55 -x56 -x57 -x58 -x59 -x60 -x61 -x62 -x63 -x64 -x65 -x66 -x67 -x68 -x69 -x70 -x71 -x72 -x73 -x74 -x75 -x76 -x77 x78 -x79 -x80 -x81 x82 -x83 -x84 -x85 -x86 -x87 -x88 -x89 -x90 -x91 -x92 x93 -x94 -x95 x96 -x97 -x98 -x99 -x100
4617.04/3600.04	o 314.0 216.0 322.0 350.0 183.0
4617.04/3600.04	n 57
